(set-info :smt-lib-version 2.6)
(set-logic QF_UFLRA)
(set-info :source |
MathSat group

|)
(set-info :category "random")
(set-info :status unsat)
(declare-fun x0 () Real)
(declare-fun x1 () Real)
(declare-fun x2 () Real)
(declare-fun x3 () Real)
(declare-fun x4 () Real)
(declare-fun x5 () Real)
(declare-fun x6 () Real)
(declare-fun x7 () Real)
(declare-fun x8 () Real)
(declare-fun x9 () Real)
(declare-fun x10 () Real)
(declare-fun x11 () Real)
(declare-fun x12 () Real)
(declare-fun x13 () Real)
(declare-fun x14 () Real)
(declare-fun x15 () Real)
(declare-fun x16 () Real)
(declare-fun x17 () Real)
(declare-fun x18 () Real)
(declare-fun x19 () Real)
(declare-fun x20 () Real)
(declare-fun x21 () Real)
(declare-fun x22 () Real)
(declare-fun x23 () Real)
(declare-fun x24 () Real)
(declare-fun x25 () Real)
(declare-fun x26 () Real)
(declare-fun x27 () Real)
(declare-fun x28 () Real)
(declare-fun x29 () Real)
(declare-fun f0_1 (Real) Real)
(declare-fun f0_2 (Real Real) Real)
(declare-fun f0_3 (Real Real Real) Real)
(declare-fun f0_4 (Real Real Real Real) Real)
(declare-fun P0 () Bool)
(declare-fun P1 () Bool)
(declare-fun P2 () Bool)
(declare-fun P3 () Bool)
(declare-fun P4 () Bool)
(declare-fun P5 () Bool)
(declare-fun P6 () Bool)
(declare-fun P7 () Bool)
(declare-fun P8 () Bool)
(declare-fun P9 () Bool)
(declare-fun P10 () Bool)
(declare-fun P11 () Bool)
(declare-fun P12 () Bool)
(declare-fun P13 () Bool)
(declare-fun P14 () Bool)
(declare-fun P15 () Bool)
(declare-fun P16 () Bool)
(declare-fun P17 () Bool)
(declare-fun P18 () Bool)
(declare-fun P19 () Bool)
(declare-fun P20 () Bool)
(declare-fun P21 () Bool)
(declare-fun P22 () Bool)
(declare-fun P23 () Bool)
(declare-fun P24 () Bool)
(declare-fun P25 () Bool)
(declare-fun P26 () Bool)
(declare-fun P27 () Bool)
(declare-fun P28 () Bool)
(declare-fun P29 () Bool)
(assert (let ((?v_20 (* 3 x28)) (?v_23 (* 10 x13)) (?v_0 (< (- (+ (* 35 x17) (* 19 x2)) (* 37 x28)) 28)) (?v_85 (distinct (+ (- (* 24 x14) (* 33 x5)) (* 36 x16)) 19)) (?v_60 (distinct (- (+ (* 41 x9) (* 10 x14)) (* 25 x22)) 20))) (let ((?v_27 (= (- (- (* 10 x26) (* 9 x21)) ?v_20) 28)) (?v_1 (< (- (- (* 34 x23) (* 41 x1)) (* 6 x4)) 27)) (?v_117 (* 11 x16)) (?v_118 (distinct (f0_2 x3 x29) (f0_2 x3 x3))) (?v_47 (= x7 (f0_2 x8 x1))) (?v_147 (= (f0_2 x19 x18) x20)) (?v_19 (= (f0_2 x16 x22) (f0_1 x24))) (?v_42 (= (f0_2 x8 x19) (f0_2 x20 x22))) (?v_12 (= (f0_2 x26 x8) (f0_2 x9 x5))) (?v_68 (distinct x19 (f0_2 x29 x16))) (?v_109 (= (f0_1 x13) (f0_1 x15))) (?v_65 (f0_1 x25))) (let ((?v_134 (distinct ?v_65 (f0_1 x12))) (?v_133 (distinct (f0_1 x17) (f0_2 x29 x6))) (?v_46 (= (f0_1 x9) x17)) (?v_78 (distinct (f0_2 x9 x7) (f0_2 x23 x8))) (?v_74 (= (f0_2 x18 x24) (f0_2 x9 x29))) (?v_18 (= (f0_2 x16 x7) (f0_1 x28))) (?v_55 (distinct x11 x25)) (?v_26 (= x2 (f0_1 x21))) (?v_80 (distinct x20 x17)) (?v_37 (= x15 x24)) (?v_81 (distinct (f0_1 x23) x14)) (?v_120 (distinct (f0_2 x14 x7) (f0_2 x12 x28))) (?v_76 (distinct x10 x29)) (?v_48 (f0_1 x19))) (let ((?v_4 (= ?v_48 x25)) (?v_150 (distinct (f0_2 x29 x8) ?v_48)) (?v_155 (= x2 (f0_2 x22 x16))) (?v_54 (= (f0_1 x11) x14)) (?v_98 (= ?v_65 (f0_2 x3 x12))) (?v_33 (f0_1 x4))) (let ((?v_63 (= (f0_2 x19 x5) ?v_33)) (?v_53 (distinct (f0_2 x11 x23) (f0_2 x11 x16))) (?v_7 (distinct ?v_33 (f0_1 x20))) (?v_29 (distinct (f0_1 x5) x17)) (?v_83 (not ?v_0)) (?v_2 (not P7)) (?v_6 (not P29))) (let ((?v_152 (or P18 ?v_6)) (?v_24 (not P10)) (?v_28 (not P23)) (?v_69 (not ?v_4)) (?v_73 (not ?v_78)) (?v_3 (not ?v_147)) (?v_103 (not ?v_1)) (?v_9 (not ?v_29)) (?v_8 (not P18)) (?v_14 (not P2)) (?v_58 (not P11)) (?v_39 (not P26)) (?v_71 (not P21)) (?v_17 (not ?v_133)) (?v_52 (not P24)) (?v_108 (not ?v_26)) (?v_119 (not P4)) (?v_50 (not P25)) (?v_79 (not ?v_46)) (?v_148 (not P1)) (?v_49 (not P27)) (?v_137 (not ?v_98)) (?v_93 (not ?v_42)) (?v_40 (not P13)) (?v_77 (not ?v_81)) (?v_31 (not P6)) (?v_51 (not P14)) (?v_105 (not ?v_18)) (?v_100 (not ?v_27)) (?v_72 (not ?v_54)) (?v_91 (not P8)) (?v_89 (not ?v_85)) (?v_128 (not ?v_150)) (?v_153 (not ?v_55)) (?v_66 (not ?v_53)) (?v_136 (not ?v_60)) (?v_127 (not P0)) (?v_131 (not P15)) (?v_62 (not P20)) (?v_70 (not ?v_47)) (?v_94 (not P12)) (?v_97 (not ?v_134)) (?v_126 (not ?v_63)) (?v_92 (not ?v_74)) (?v_88 (not P28)) (?v_107 (not ?v_76)) (?v_145 (not P3)) (?v_122 (not P17)) (?v_114 (not ?v_80)) (?v_96 (not ?v_37)) (?v_132 (not P22)) (?v_111 (not ?v_7)) (?v_141 (not P16)) (?v_116 (not ?v_120)) (?v_110 (not P5)) (?v_106 (not ?v_12)) (?v_124 (not P9)) (?v_140 (not ?v_155)) (?v_143 (not ?v_109)) (?v_149 (not ?v_19)) (?v_130 (not P19)) (?v_135 (not ?v_68)) (?v_144 (not ?v_118)) (?v_13 (< (+ x17 (* 3 x19) (* 13 x12)) 41))) (let ((?v_112 (not ?v_13)) (?v_99 (< (- (* 16 x15) (* 15 x28)) 14))) (let ((?v_154 (not ?v_99)) (?v_5 (< (+ (- (* 17 x27) (* 18 x25)) (* 22 x18)) (- 16)))) (let ((?v_10 (not ?v_5)) (?v_34 (< (- (+ (* (- 27) x26) ?v_20) (* 34 x25)) (- 16)))) (let ((?v_102 (not ?v_34)) (?v_35 (<= (+ (- (* (- 14) x24) (* 24 x18)) (* 14 x1)) 26)) (?v_25 (= (- (+ (* (- 13) x1) (* 28 x22)) (* 8 x19)) (- 42))) (?v_32 (<= (- (+ (* (- 12) x19) (* 14 x17)) (* 21 x19)) 21)) (?v_11 (<= (+ (* (- 35) x8) (* 32 x16) (* 35 x23)) 8)) (?v_113 (<= (- (+ (* (- 24) x29) ?v_117) (* 38 x15)) 27)) (?v_59 (<= (- (+ (* (- 33) x5) (* 17 x5)) (* 31 x26)) 19))) (let ((?v_16 (not ?v_59)) (?v_45 (distinct (+ (* (- 14) x18) (* 10 x19) (* 12 x4)) 0)) (?v_15 (< (- (- (* (- 2) x28) (* 5 x8)) (* 37 x11)) 31))) (let ((?v_22 (not ?v_15)) (?v_56 (< (- (- (* (- 7) x17) (* 27 x7)) 0) (- 17)))) (let ((?v_75 (not ?v_56)) (?v_43 (<= (- (+ (* (- 11) x22) (* 27 x22)) (* 8 x29)) (- 8))) (?v_61 (<= (- (- (* 8 x20) ?v_23) (* 34 x2)) (- 10)))) (let ((?v_21 (not ?v_61)) (?v_125 (< (- (+ (* (- 38) x18) (* 19 x9)) (* 21 x10)) 22))) (let ((?v_87 (not ?v_125)) (?v_101 (< (- (- (* (- 8) x6) (* 36 x5)) ?v_23) (- 39))) (?v_30 (<= (+ (- (* 9 x16) (* 29 x20)) (* 16 x22)) (- 25))) (?v_38 (<= (+ (- (* (- 2) x1) (* 11 x25)) (* 34 x10)) 21)) (?v_36 (<= (- (+ (* 24 x17) (* 9 x2)) (* 8 x22)) (- 5))) (?v_41 (<= (+ (- (* (- 34) x2) (* 6 x10)) (* 17 x28)) 9))) (let ((?v_146 (not ?v_41)) (?v_64 (not ?v_32)) (?v_82 (not ?v_38)) (?v_84 (not ?v_30)) (?v_57 (<= (- (* 42 x1) (* 11 x1)) (- 21)))) (let ((?v_44 (not ?v_57)) (?v_104 (not ?v_35)) (?v_67 (<= (+ (- (* (- 42) x1) (* 24 x29)) (* 27 x17)) (- 21))) (?v_95 (= (+ (* 13 x6) x18 (* 3 x1)) (- 24))) (?v_115 (not ?v_11)) (?v_86 (not ?v_45)) (?v_90 (not ?v_43)) (?v_121 (not ?v_113)) (?v_139 (< (+ (* (- 30) x26) ?v_117 (* 37 x21)) (- 2)))) (let ((?v_151 (not ?v_139)) (?v_123 (not ?v_25)) (?v_129 (not ?v_67)) (?v_138 (not ?v_36)) (?v_142 (not ?v_101)) (?v_156 (or ?v_95 P16)) (?v_157 (not ?v_95))) (and (and (and (and (and (and (and (and (and (and (and (and (and (and (and (and (and (and (and (and (and (and (and (and (and (and (and (and (and (and (and (and (and (and (and (and (and (and (and (and (and (and (and (and (and (and (and (and (and (and (and (and (and (and (and (and (and (and (and (and (and (and (and (and (and (and (and (and (and (and (and (and (and (and (and (and (and (and (and (and (and (and (and (and (and (and (and (and (and (and (and (and (and (and (and (and (and (and (and (and (and (and (and (and (and (and (and (and (and (and (and (and (and (and (and (and (and (and (and (and (and (and (and (and (and (and (and (and (and (and (and (and (and (and (and (and (and (and (and (and (and (and (and (and (and (and (and (and (and (and (and (and (and (and (and (and (and (and (and (and (and (and (and (and (and (and (and (and (and (and (and (and (and (and (and (and (and (and (and (and (and (and (and (and (and (and (and (and (and (and (and (and (and (and (and (and (and (and (and (and (and (and (and (and (and (and (and (and (and (and (and (and (and (and (and (and (and (and (and (and (and (and (and (and (and (and (and (and (and (and (and (and (and (and (and (and (and (and (and (and (and (and (and (and (and (and (and (and (and (and (and (and (and (and (and (and (and (and (and (and (and (and (and (and (and (and (and (and (and (and (and (and (and (and (and (and (and (and (and (and (and (and (and (and (and (and (and (and (and (and (and (and (and (and (and (and (and (and (and (and (and (and (and (and (and (and (and (and (and (and (and (and (and (and (and (and (and (and (and (and (and (and (and (and (and (and (and (and (and (and (and (and (and (and (and (and (and (and (and (and (and (and (and (and (and (and (and (and (and (and (and (and (and (and (and (and (and (and (and (and (and (and (and (and (and (and (and (and (and (and (and (and (and (and (and (and (and (and (and (and (and (and (and (and (and (and (and (and (and (and (and (and (and (and (and (and (and (and (and (and (and (and (and (and (and (and (and (and (and (and (and (and (and (and (and (and (and (and (and (and (and (and (and (and (and (and (and (and (and (and (and (and (and (and (and (and (and (and (and (and (and (and (and (and (and (and (and (and (and (or (or ?v_83 P19) ?v_2) (or ?v_152 P8)) (or (or P3 ?v_24) ?v_1)) (or (or ?v_28 ?v_69) ?v_12)) (or (or ?v_73 ?v_19) ?v_0)) (or (or P28 ?v_3) ?v_10)) (or (or P27 ?v_103) ?v_102)) (or (or ?v_9 ?v_2) ?v_35)) (or (or ?v_3 ?v_7) P22)) (or (or P17 P26) P28)) (or (or ?v_8 ?v_0) ?v_4)) (or (or ?v_5 ?v_6) ?v_25)) (or (or P0 ?v_32) ?v_11)) (or (or ?v_14 ?v_113) ?v_18)) (or (or ?v_7 ?v_8) P27)) (or (or ?v_16 ?v_9) ?v_58)) (or (or P9 ?v_39) ?v_10)) (or (or ?v_71 ?v_11) ?v_45)) (or (or ?v_17 ?v_80) ?v_1)) (or (or ?v_112 ?v_22) ?v_12)) (or (or P5 ?v_13) ?v_52)) (or (or ?v_75 ?v_108) ?v_119)) (or (or P1 ?v_14) ?v_50)) (or (or ?v_43 P14) ?v_79)) (or (or ?v_15 ?v_16) P7)) (or (or ?v_148 ?v_17) ?v_49)) (or (or ?v_137 ?v_21) ?v_93)) (or (or ?v_1 ?v_18) P10)) (or (or ?v_40 ?v_19) ?v_15)) (or (or P14 ?v_27) ?v_47)) (or (or P24 ?v_77) ?v_118)) (or (or P22 ?v_87) ?v_21)) (or (or ?v_2 ?v_8) ?v_31)) (or (or ?v_22 ?v_101) ?v_76)) (or (or ?v_37 P23) ?v_51)) (or (or P14 ?v_24) ?v_25)) (or (or ?v_26 ?v_30) ?v_27)) (or (or ?v_26 ?v_9) ?v_28)) (or (or P28 ?v_29) ?v_38)) (or (or P3 ?v_30) ?v_105)) (or (or ?v_100 P21) ?v_31)) (or (or ?v_53 ?v_32) P24)) (or (or P11 ?v_63) ?v_36)) (or (or ?v_146 ?v_64) P22)) (or (or ?v_34 ?v_30) ?v_35)) (or (or ?v_36 ?v_37) ?v_3)) (or (or ?v_72 P7) ?v_28)) (or (or ?v_91 ?v_6) ?v_82)) (or (or P8 ?v_24) ?v_39)) (or (or ?v_84 P3) ?v_40)) (or (or P10 ?v_41) ?v_44)) (or (or ?v_42 ?v_43) ?v_44)) (or (or ?v_27 ?v_27) ?v_14)) (or (or ?v_45 ?v_154) P20)) (or (or P24 ?v_74) ?v_46)) (or (or ?v_47 ?v_6) ?v_89)) (or (or ?v_128 ?v_49) ?v_153)) (or (or ?v_37 ?v_50) ?v_7)) (or (or ?v_35 ?v_3) ?v_29)) (or (or P1 ?v_51) ?v_52)) (or (or ?v_17 ?v_66) ?v_54)) (or (or P8 ?v_6) P16)) (or (or ?v_136 ?v_38) ?v_55)) (or (or ?v_127 ?v_56) ?v_57)) (or (or P12 ?v_131) ?v_58)) (or (or ?v_104 P17) ?v_59)) (or (or P25 ?v_11) P2)) (or (or ?v_62 ?v_18) ?v_60)) (or (or ?v_61 ?v_58) ?v_70)) (or (or ?v_38 P26) ?v_62)) (or (or ?v_109 ?v_68) P27)) (or (or ?v_63 ?v_67) ?v_94)) (or (or ?v_6 ?v_64) ?v_97)) (or (or ?v_40 ?v_126) ?v_66)) (or (or ?v_67 ?v_47) ?v_68)) (or (or ?v_69 ?v_1) P26)) (or (or ?v_70 P20) ?v_95)) (or (or ?v_46 ?v_71) ?v_32)) (or (or P27 P18) ?v_72)) (or (or ?v_1 ?v_73) P17)) (or (or ?v_30 ?v_92) ?v_10)) (or (or ?v_47 ?v_35) ?v_6)) (or (or ?v_115 ?v_75) P6)) (or (or ?v_88 ?v_46) ?v_28)) (or (or P5 ?v_28) ?v_57)) (or (or P25 ?v_107) ?v_77)) (or (or P9 P10) ?v_43)) (or (or ?v_78 ?v_145) P24)) (or (or ?v_122 ?v_57) ?v_58)) (or (or ?v_76 ?v_43) ?v_29)) (or (or ?v_21 ?v_57) ?v_79)) (or (or ?v_74 P29) ?v_57)) (or (or ?v_114 ?v_81) ?v_41)) (or (or ?v_82 ?v_30) ?v_83)) (or (or ?v_84 ?v_52) ?v_72)) (or (or ?v_85 ?v_86) ?v_82)) (or (or ?v_96 ?v_132) ?v_86)) (or (or ?v_87 P25) ?v_67)) (or (or ?v_17 ?v_6) ?v_42)) (or (or ?v_88 ?v_90) ?v_89)) (or (or ?v_57 P7) ?v_15)) (or (or ?v_25 ?v_90) P26)) (or (or P23 ?v_91) ?v_92)) (or (or ?v_93 ?v_19) ?v_32)) (or (or ?v_68 ?v_111) ?v_94)) (or (or ?v_1 P26) ?v_32)) (or (or ?v_51 ?v_73) ?v_95)) (or (or ?v_96 ?v_97) ?v_3)) (or (or ?v_98 ?v_90) P10)) (or (or ?v_59 ?v_63) P17)) (or (or ?v_141 ?v_39) ?v_99)) (or (or ?v_17 ?v_77) ?v_116)) (or (or ?v_95 P19) P28)) (or (or ?v_110 ?v_76) ?v_69)) (or (or P25 ?v_100) ?v_101)) (or (or P16 ?v_102) ?v_1)) (or (or ?v_18 P13) ?v_78)) (or (or ?v_36 ?v_42) ?v_26)) (or (or ?v_96 ?v_53) ?v_45)) (or (or ?v_38 ?v_3) ?v_106)) (or (or ?v_103 ?v_104) ?v_105)) (or (or ?v_49 P29) ?v_66)) (or (or ?v_63 P15) ?v_14)) (or (or ?v_22 P14) ?v_79)) (or (or ?v_90 ?v_79) P3)) (or (or P4 ?v_106) ?v_58)) (or (or ?v_107 ?v_5) ?v_108)) (or (or ?v_105 ?v_109) P4)) (or (or ?v_83 ?v_88) ?v_63)) (or (or ?v_110 ?v_105) ?v_92)) (or (or ?v_111 ?v_112) ?v_72)) (or (or ?v_98 ?v_50) ?v_43)) (or (or ?v_121 P18) ?v_101)) (or (or P28 ?v_72) ?v_19)) (or (or ?v_12 ?v_53) P26)) (or (or ?v_124 ?v_75) ?v_114)) (or (or ?v_103 ?v_115) ?v_16)) (or (or ?v_2 ?v_50) ?v_43)) (or (or ?v_51 ?v_77) P28)) (or (or ?v_80 ?v_39) ?v_116)) (or (or ?v_57 ?v_151) ?v_81)) (or (or ?v_123 ?v_79) ?v_88)) (or (or ?v_49 ?v_118) ?v_140)) (or (or ?v_102 P13) ?v_119)) (or (or P19 ?v_129) ?v_109)) (or (or ?v_32 ?v_138) P4)) (or (or ?v_120 ?v_89) P20)) (or (or ?v_87 P18) ?v_39)) (or (or ?v_98 P3) ?v_100)) (or (or ?v_55 ?v_121) ?v_22)) (or (or ?v_49 ?v_122) ?v_59)) (or (or ?v_78 ?v_114) ?v_36)) (or (or ?v_143 ?v_9) ?v_103)) (or (or P29 P13) ?v_123)) (or (or ?v_124 ?v_59) ?v_125)) (or (or ?v_38 P25) ?v_126)) (or (or ?v_108 ?v_104) ?v_102)) (or (or ?v_127 ?v_103) ?v_80)) (or (or ?v_128 P4) ?v_6)) (or (or ?v_125 P27) P14)) (or (or ?v_58 ?v_129) ?v_149)) (or (or ?v_51 ?v_112) ?v_102)) (or (or ?v_130 ?v_26) ?v_30)) (or (or ?v_130 P2) ?v_122)) (or (or ?v_135 ?v_12) ?v_17)) (or (or P20 ?v_115) ?v_13)) (or (or ?v_54 P19) ?v_66)) (or (or P28 ?v_35) ?v_21)) (or (or ?v_62 ?v_64) ?v_101)) (or (or ?v_127 ?v_113) P11)) (or (or ?v_131 ?v_19) P12)) (or (or ?v_101 ?v_115) ?v_132)) (or (or ?v_17 ?v_133) ?v_52)) (or (or P29 ?v_88) ?v_8)) (or (or ?v_87 P9) ?v_115)) (or (or ?v_81 ?v_93) ?v_103)) (or (or ?v_73 ?v_14) ?v_47)) (or (or ?v_134 ?v_144) ?v_135)) (or (or ?v_86 ?v_7) ?v_10)) (or (or ?v_95 ?v_34) ?v_135)) (or (or ?v_66 ?v_136) P25)) (or (or ?v_60 ?v_9) ?v_54)) (or (or ?v_72 ?v_90) ?v_123)) (or (or ?v_127 ?v_112) ?v_2)) (or (or ?v_121 ?v_1) ?v_83)) (or (or ?v_14 ?v_40) ?v_125)) (or (or ?v_85 P27) ?v_104)) (or (or ?v_132 ?v_56) P27)) (or (or ?v_15 ?v_69) ?v_134)) (or (or ?v_19 ?v_137) ?v_81)) (or (or ?v_49 P13) ?v_138)) (or (or ?v_61 ?v_88) ?v_40)) (or (or ?v_60 ?v_38) ?v_71)) (or (or ?v_91 ?v_8) ?v_31)) (or (or ?v_87 ?v_19) ?v_100)) (or (or ?v_18 P7) ?v_93)) (or (or ?v_107 ?v_122) ?v_35)) (or (or ?v_85 ?v_135) ?v_36)) (or (or ?v_9 P12) ?v_139)) (or (or ?v_129 ?v_142) P7)) (or (or ?v_126 P17) ?v_140)) (or (or ?v_141 ?v_26) ?v_57)) (or ?v_156 ?v_126)) (or (or ?v_47 P24) ?v_7)) (or (or P12 P25) P11)) (or (or ?v_134 ?v_18) ?v_142)) (or (or ?v_56 ?v_54) ?v_41)) (or (or ?v_52 ?v_143) ?v_16)) (or (or ?v_55 P16) P6)) (or (or ?v_29 ?v_83) P6)) (or (or P13 P1) ?v_144)) (or (or ?v_145 ?v_99) P20)) (or (or ?v_109 P21) ?v_138)) (or (or ?v_85 ?v_54) ?v_62)) (or (or ?v_12 P6) ?v_100)) (or (or ?v_62 ?v_118) ?v_50)) (or (or ?v_47 ?v_18) ?v_85)) (or (or ?v_22 ?v_146) ?v_68)) (or (or ?v_12 ?v_133) ?v_58)) (or (or P15 ?v_50) ?v_76)) (or (or P27 P15) ?v_140)) (or (or ?v_126 ?v_147) ?v_6)) (or (or ?v_84 ?v_49) ?v_13)) (or (or ?v_47 ?v_51) ?v_98)) (or (or ?v_57 ?v_95) ?v_80)) (or (or ?v_124 ?v_35) ?v_129)) (or (or ?v_40 ?v_31) ?v_135)) (or (or ?v_139 ?v_50) ?v_5)) (or (or ?v_29 ?v_87) P9)) (or (or ?v_118 ?v_85) ?v_51)) (or (or ?v_60 ?v_80) ?v_112)) (or (or ?v_50 ?v_88) ?v_78)) (or (or ?v_84 ?v_119) ?v_142)) (or (or P10 ?v_106) ?v_1)) (or (or ?v_137 ?v_128) ?v_136)) (or (or P3 ?v_108) ?v_66)) (or (or ?v_121 ?v_39) ?v_107)) (or (or ?v_140 ?v_24) ?v_9)) (or (or P17 P29) P0)) (or (or ?v_106 ?v_115) ?v_1)) (or (or P29 ?v_80) ?v_69)) (or (or ?v_95 ?v_131) ?v_44)) (or (or ?v_148 ?v_10) ?v_85)) (or (or ?v_13 ?v_149) ?v_14)) (or (or ?v_142 P19) ?v_88)) (or (or ?v_150 ?v_138) ?v_148)) (or (or ?v_43 ?v_101) P24)) (or (or ?v_125 ?v_101) ?v_73)) (or (or ?v_5 ?v_104) ?v_55)) (or (or ?v_94 ?v_137) ?v_125)) (or (or ?v_29 ?v_77) ?v_148)) (or (or ?v_151 ?v_120) ?v_7)) (or (or P6 ?v_46) ?v_107)) (or ?v_152 ?v_83)) (or (or ?v_37 ?v_16) ?v_108)) (or (or ?v_58 ?v_147) ?v_142)) (or (or P24 ?v_17) ?v_130)) (or (or ?v_3 ?v_50) ?v_16)) (or (or P23 ?v_69) ?v_71)) (or (or ?v_2 P27) P28)) (or (or ?v_46 ?v_135) ?v_99)) (or (or ?v_124 P13) ?v_15)) (or (or P11 ?v_37) ?v_25)) (or (or ?v_76 P15) P7)) (or (or ?v_56 ?v_12) ?v_140)) (or (or P10 P10) ?v_66)) (or (or ?v_75 P17) ?v_90)) (or (or ?v_151 ?v_57) ?v_8)) (or (or ?v_109 ?v_46) ?v_97)) (or (or ?v_63 ?v_84) ?v_40)) (or (or ?v_96 P16) ?v_92)) (or (or P28 ?v_135) ?v_124)) (or (or ?v_5 ?v_37) ?v_56)) (or (or ?v_61 P23) ?v_17)) (or (or ?v_153 P7) ?v_102)) (or (or ?v_123 ?v_137) ?v_86)) (or (or ?v_118 P24) ?v_10)) (or (or ?v_85 ?v_89) ?v_10)) (or (or P8 ?v_97) ?v_46)) (or (or ?v_62 P27) ?v_41)) (or (or ?v_109 ?v_74) ?v_75)) (or (or ?v_42 ?v_8) ?v_111)) (or (or ?v_120 ?v_43) ?v_126)) (or (or ?v_10 ?v_143) ?v_95)) (or (or ?v_91 ?v_119) ?v_64)) (or (or ?v_146 ?v_40) ?v_140)) (or (or ?v_145 ?v_76) ?v_110)) (or (or ?v_121 ?v_19) ?v_111)) (or (or ?v_13 ?v_119) ?v_154)) (or (or ?v_86 ?v_75) ?v_70)) (or (or P13 ?v_98) P27)) (or (or ?v_58 P4) ?v_131)) (or (or P3 ?v_54) ?v_106)) (or (or P7 ?v_153) P17)) (or (or ?v_157 ?v_62) ?v_41)) (or (or ?v_127 ?v_62) ?v_91)) (or (or ?v_121 ?v_37) ?v_56)) (or (or ?v_38 ?v_95) ?v_83)) (or (or ?v_39 ?v_46) ?v_41)) (or (or P22 ?v_35) P23)) (or (or ?v_155 P4) ?v_50)) (or (or ?v_118 ?v_135) ?v_71)) (or (or ?v_83 ?v_140) ?v_153)) (or (or P1 ?v_111) ?v_5)) (or (or ?v_69 ?v_51) ?v_76)) (or (or ?v_145 ?v_39) ?v_71)) (or (or ?v_25 ?v_36) ?v_103)) (or (or ?v_25 ?v_70) ?v_119)) (or (or ?v_50 ?v_83) P4)) (or (or ?v_95 P8) P1)) (or (or ?v_66 P10) ?v_121)) (or (or P25 ?v_3) ?v_100)) (or (or P9 ?v_69) ?v_12)) (or (or P15 ?v_134) ?v_49)) (or (or ?v_139 ?v_132) P18)) (or (or ?v_108 P16) ?v_114)) (or (or ?v_90 ?v_86) ?v_26)) (or (or ?v_134 ?v_78) ?v_25)) (or (or ?v_26 ?v_140) ?v_102)) (or (or ?v_146 ?v_50) ?v_94)) (or (or ?v_131 ?v_138) ?v_78)) (or (or P15 P6) ?v_106)) (or (or P20 ?v_2) ?v_107)) (or ?v_156 ?v_103)) (or (or ?v_44 ?v_5) ?v_106)) (or (or ?v_138 ?v_61) P5)) (or (or ?v_7 ?v_148) P17)) (or (or P24 ?v_4) P15)) (or (or P13 ?v_64) P10)) (or (or ?v_142 ?v_85) ?v_24)) (or (or ?v_98 ?v_95) P18)) (or (or P12 ?v_146) ?v_30)) (or (or ?v_105 ?v_57) ?v_137)) (or (or ?v_14 ?v_62) ?v_51)) (or (or ?v_90 ?v_77) ?v_157)) (or (or ?v_109 ?v_101) ?v_60)) (or (or ?v_124 ?v_137) ?v_83)) (or (or ?v_21 P22) ?v_81)) (or (or ?v_139 P24) ?v_104)) (or (or ?v_10 ?v_149) ?v_154)) (or (or ?v_5 P28) ?v_151)) (or (or ?v_41 P3) ?v_142)) (or (or ?v_132 P4) ?v_42)) (or (or P26 P7) ?v_41)) (or (or ?v_3 ?v_17) ?v_47)) (or (or P25 ?v_93) ?v_104)) (or (or ?v_95 P27) ?v_44)) (or (or ?v_24 ?v_142) ?v_42)) (or (or ?v_36 ?v_125) ?v_8)) (or (or ?v_115 ?v_39) ?v_130)) (or (or ?v_101 P19) ?v_116)) (or (or ?v_59 ?v_38) ?v_79)) (or (or ?v_132 ?v_28) ?v_151)) (or (or ?v_155 ?v_134) P20)) (or (or P23 ?v_134) P22)) (or (or ?v_146 ?v_136) ?v_12)) (or (or ?v_63 ?v_72) ?v_41)) (or (or ?v_52 ?v_90) ?v_59)) (or (or ?v_150 P1) ?v_82)) (or (or ?v_143 ?v_16) ?v_95)) (or (or ?v_101 ?v_91) ?v_106)) (or (or P7 ?v_52) ?v_126)) (or (or ?v_36 ?v_147) ?v_24)) (or (or ?v_71 ?v_132) ?v_123)) (or (or P24 P6) ?v_115)) (or (or ?v_12 ?v_22) P24)) (or (or ?v_82 ?v_138) P28)) (or (or ?v_25 ?v_12) ?v_130)) (or (or ?v_87 P13) ?v_49)) (or (or ?v_128 ?v_8) ?v_96)) (or (or P8 ?v_3) ?v_0)) (or (or ?v_125 ?v_89) ?v_132)) (or (or ?v_59 ?v_113) ?v_70)) (or (or ?v_105 ?v_97) ?v_110)) (or (or ?v_75 ?v_36) ?v_61)) (or (or ?v_81 ?v_110) ?v_59)) (or (or ?v_82 ?v_51) P16)) (or (or ?v_39 ?v_75) ?v_76)) (or (or ?v_135 ?v_147) ?v_18)) (or (or ?v_45 P15) ?v_111)) (or (or ?v_88 P25) ?v_70)) (or (or ?v_71 ?v_45) ?v_74)) (or (or ?v_138 ?v_60) ?v_66)) (or (or ?v_101 ?v_147) ?v_56)) (or (or ?v_22 ?v_85) ?v_67)) (or (or ?v_102 ?v_143) ?v_35)) (or (or ?v_104 P7) ?v_37)) (or (or ?v_118 ?v_120) P7)) (or (or ?v_135 ?v_34) ?v_0)) (or (or P9 ?v_114) ?v_42)) (or (or ?v_11 ?v_26) ?v_59)) (or (or P3 ?v_103) ?v_89)) (or (or ?v_73 ?v_9) ?v_79)) (or (or ?v_41 ?v_60) ?v_125)) (or (or ?v_127 ?v_49) ?v_27)) (or (or ?v_60 ?v_55) ?v_146)) (or (or ?v_79 ?v_129) ?v_95)) (or (or P24 ?v_134) ?v_44)) (or (or ?v_85 P24) ?v_145)) (or (or P10 ?v_153) ?v_17)) (or (or ?v_143 ?v_31) P4)) (or (or P17 ?v_13) P29)) (or (or ?v_137 ?v_83) P27)) (or (or ?v_67 ?v_45) ?v_72)) (or (or P3 ?v_3) ?v_11)) (or (or ?v_41 P12) ?v_77)) (or (or ?v_75 P21) ?v_42)) (or (or ?v_27 ?v_42) ?v_94)) (or (or ?v_50 P10) ?v_21)) (or (or ?v_35 ?v_54) ?v_50)) (or (or ?v_112 ?v_37) ?v_2)) (or (or ?v_11 ?v_45) ?v_130)) (or (or ?v_66 ?v_63) P23)) (or (or P20 ?v_7) P4)) (or (or ?v_125 ?v_19) ?v_129)) (or (or ?v_154 P17) ?v_13)) (or (or ?v_110 ?v_47) P6)) (or (or P15 ?v_41) ?v_136)) (or (or ?v_130 ?v_55) ?v_129)) (or (or ?v_113 ?v_56) ?v_142)) (or (or ?v_26 ?v_82) ?v_59)) (or (or ?v_36 ?v_144) ?v_37)) (or (or ?v_47 P26) ?v_121)) (or (or ?v_35 P22) ?v_124)) (or (or ?v_123 ?v_30) ?v_32)) (or (or ?v_39 ?v_133) ?v_15)) (or (or ?v_135 P7) P5)) (or (or P1 P25) ?v_109)) (or (or ?v_2 ?v_88) ?v_147)) (or (or P6 ?v_97) ?v_149)) (or (or P9 ?v_8) ?v_133)) (or (or ?v_73 ?v_154) ?v_115)) (or (or ?v_84 ?v_116) P8)) (or (or ?v_62 ?v_17) ?v_9)) (or (or ?v_13 ?v_21) ?v_132)) (or (or ?v_120 ?v_6) ?v_68)) (or (or ?v_142 ?v_151) P20)) (or (or ?v_146 ?v_0) ?v_34)) (or (or ?v_146 ?v_41) ?v_79)) (or (or ?v_105 ?v_95) ?v_87)) (or (or ?v_135 P3) ?v_7)) (or (or ?v_133 P16) ?v_25)) (or (or ?v_139 ?v_40) ?v_54)) (or (or ?v_82 ?v_75) ?v_132)) (or (or ?v_104 P16) ?v_15)) (or (or ?v_50 ?v_128) ?v_99)) (or (or ?v_68 ?v_34) ?v_149)) (or (or ?v_51 ?v_8) P25)) (or (or ?v_128 P22) ?v_8)) (or (or ?v_36 ?v_135) ?v_109)))))))))))))))))))))
(check-sat)
(exit)
